20 50 
1 2 1
1 9 1
1 10 1
1 15 1
1 17 1
2 5 1
2 9 1
2 12 1
2 17 1
2 18 1
3 4 1
3 6 1
3 11 1
3 13 1
3 15 1
3 20 1
4 7 1
4 10 1
4 16 1
5 7 1
5 8 1
5 12 1
5 13 1
5 18 1
5 19 1
5 20 1
6 11 1
6 12 1
6 15 1
7 14 1
7 16 1
8 10 1
8 11 1
8 16 1
8 18 1
9 14 1
9 15 1
9 18 1
9 19 1
10 18 1
10 19 1
11 13 1
11 16 1
11 17 1
11 20 1
13 14 1
14 17 1
14 19 1
15 19 1
16 20 1
